510400
71
79
32
73
100
64
95
20
99
24
17
63
62
94
46
36
80
2
13
38
83
61
31
55
85
78
48
16 15
27 65
81 5
35 6
9 3
97 18
7 29
42 11
39 47
57 33
8 12
98 70
49 88
59 93
22 86
45 96
52 91
26 66
37 56
68 19
23 67
50 4
69 34
40 84
77 28
60 41
72 1
44 54
75 76
10 53
21 74
89 51
82 90
92 43
30 14
25 58
